1 1 -2 0
1 1 -3 0
1 -4 5 0
1 -4 1 0
1 6 7 0
1 6 1 0
1 3 8 0
1 -3 -9 0
1 -3 10 0
1 3 1 0
1 -11 12 0
1 13 -2 0
1 -14 -13 0
1 -14 11 0
1 -15 16 0
1 15 -17 0
1 2 11 0
1 2 18 0
1 -5 -19 0
1 5 4 0
1 5 -16 0
1 5 -20 0
1 -5 21 0
1 -22 -7 0
1 23 24 0
1 25 22 0
1 -26 -23 0
1 27 28 0
1 27 -29 0
1 12 -13 0
1 -30 -31 0
1 32 33 0
1 32 -34 0
1 -32 1 0
1 -35 -30 0
1 36 -37 0
1 36 -38 0
1 33 37 0
1 31 -39 0
1 -31 -40 0
1 31 38 0
1 -41 35 0
1 41 19 0
1 -41 40 0
1 -41 -42 0
1 41 -34 0
1 -41 -10 0
1 -41 -3 0
1 -9 -11 0
1 43 -7 0
1 43 44 0
1 -34 -45 0
1 46 -42 0
1 -20 -2 0
1 -20 -47 0
1 -20 48 0
1 -7 -37 0
1 -7 -49 0
1 7 -50 0
1 51 5 0
1 -51 -43 0
1 -51 52 0
1 51 53 0
1 51 48 0
1 -24 -54 0
1 52 18 0
1 -48 -16 0
1 -48 55 0
1 -48 9 0
1 48 56 0
1 -57 58 0
1 -57 -59 0
1 18 45 0
1 60 61 0
1 60 51 0
1 -60 -62 0
1 -60 -29 0
1 -63 24 0
1 63 -64 0
1 -29 -60 0
1 29 -65 0
1 -66 -67 0
1 68 -69 0
1 -70 29 0
1 71 66 0
1 71 -72 0
1 -71 70 0
1 71 -73 0
1 71 -68 0
1 -74 -75 0
1 -74 76 0
1 -77 -28 0
1 -78 -79 0
1 78 -73 0
1 80 81 0
1 -69 82 0
1 69 -83 0
1 79 -84 0
1 -67 -85 0
1 -86 -87 0
1 -88 89 0
1 -88 -40 0
1 -88 90 0
1 91 -33 0
1 92 -33 0
1 -92 -93 0
1 94 -40 0
1 95 96 0
1 95 -97 0
1 98 91 0
1 -47 -46 0
1 47 31 0
1 47 36 0
1 -47 -42 0
1 53 99 0
1 53 100 0
1 -53 -101 0
1 -53 102 0
1 -54 -46 0
1 54 -100 0
1 -54 53 0
1 -99 37 0
1 -99 -53 0
1 103 37 0
1 103 -104 0
1 102 105 0
1 -102 92 0
1 -101 -106 0
1 -101 -107 0
1 101 -92 0
1 -58 -45 0
1 -58 -108 0
1 45 -109 0
1 -45 46 0
1 -110 -111 0
1 -110 -112 0
1 113 -111 0
1 113 -114 0
1 -115 -114 0
1 114 53 0
1 116 117 0
1 -118 -48 0
1 -59 -111 0
1 -119 111 0
1 -119 -120 0
1 112 -76 0
1 -120 -121 0
1 120 59 0
1 -111 -59 0
1 122 -123 0
1 -122 124 0
1 -125 -126 0
1 125 -63 0
1 -62 -60 0
1 62 -77 0
1 -121 -112 0
1 -76 -127 0
1 76 74 0
1 128 -129 0
1 128 -130 0
1 128 125 0
1 128 64 0
1 55 -85 0
1 -55 131 0
1 -55 -62 0
1 132 -133 0
1 -134 -135 0
1 134 136 0
1 134 50 0
1 -85 -61 0
1 85 -79 0
1 85 137 0
1 -138 -61 0
1 -131 -130 0
1 139 -61 0
1 -139 140 0
1 61 60 0
1 -61 141 0
1 61 76 0
1 137 129 0
1 137 -131 0
1 142 -143 0
1 -142 139 0
1 -141 -144 0
1 145 -146 0
1 145 -131 0
1 -75 131 0
1 75 147 0
1 -148 146 0
1 148 149 0
1 148 142 0
1 148 -150 0
1 148 144 0
1 151 152 0
1 151 83 0
1 153 -154 0
1 153 155 0
1 84 -152 0
1 152 -156 0
1 157 -158 0
1 -159 -160 0
1 -159 161 0
1 162 -160 0
1 -163 157 0
1 -164 165 0
1 158 -166 0
1 -167 -160 0
1 167 168 0
1 169 -164 0
1 169 167 0
1 169 -161 0
1 165 -170 0
1 171 -170 0
1 171 -168 0
1 160 -169 0
1 -160 162 0
1 160 -165 0
1 -172 167 0
1 161 -173 0
1 -90 93 0
1 96 -89 0
1 -174 170 0
1 174 90 0
1 174 -165 0
1 170 175 0
1 -170 -171 0
1 -170 173 0
1 170 -176 0
1 107 -177 0
1 107 102 0
1 -109 177 0
1 106 -89 0
1 -106 -178 0
1 -179 180 0
1 181 89 0
1 -89 -109 0
1 180 -182 0
1 -105 -183 0
1 -105 181 0
1 -184 99 0
1 -184 101 0
1 -184 185 0
1 186 -187 0
1 188 186 0
1 188 183 0
1 -183 -189 0
1 -183 190 0
1 191 -98 0
1 -191 -192 0
1 190 193 0
1 -190 62 0
1 194 -121 0
1 -195 -196 0
1 -195 -197 0
1 198 -195 0
1 -104 -135 0
1 -104 -194 0
1 104 136 0
1 -187 -199 0
1 187 -188 0
1 193 188 0
1 200 134 0
1 124 104 0
1 -124 -122 0
1 135 -198 0
1 197 -194 0
1 197 143 0
1 201 -135 0
1 201 -194 0
1 117 -200 0
1 -129 -202 0
1 -129 -132 0
1 -143 197 0
1 143 201 0
1 143 203 0
1 143 -134 0
1 -143 55 0
1 143 -137 0
1 -204 133 0
1 -204 205 0
1 206 141 0
1 206 -203 0
1 207 208 0
1 123 209 0
1 123 210 0
1 -150 61 0
1 150 75 0
1 -149 -207 0
1 149 137 0
1 -211 212 0
1 -213 -146 0
1 214 -215 0
1 -133 216 0
1 -205 -149 0
1 205 -206 0
1 205 217 0
1 147 -212 0
1 -147 84 0
1 -218 -213 0
1 -140 -218 0
1 -140 -219 0
1 220 -218 0
1 -221 -222 0
1 -223 224 0
1 223 225 0
1 -226 -224 0
1 -226 -227 0
1 -226 -228 0
1 229 228 0
1 -230 -231 0
1 -230 -219 0
1 232 233 0
1 234 83 0
1 -173 235 0
1 -236 -109 0
1 236 -166 0
1 -237 166 0
1 237 -238 0
1 -237 -239 0
1 240 -241 0
1 -240 164 0
1 -166 -242 0
1 -239 -243 0
1 -244 245 0
1 -246 -175 0
1 -246 247 0
1 -248 249 0
1 248 -250 0
1 -249 -251 0
1 249 160 0
1 252 251 0
1 252 182 0
1 -238 237 0
1 253 244 0
1 -253 238 0
1 -253 -254 0
1 -182 175 0
1 -182 -255 0
1 -256 182 0
1 257 258 0
1 257 192 0
1 -250 -259 0
1 250 -260 0
1 175 259 0
1 175 261 0
1 -262 263 0
1 -262 -191 0
1 262 -247 0
1 -264 265 0
1 264 266 0
1 267 -263 0
1 267 -193 0
1 268 -269 0
1 -269 270 0
1 269 271 0
1 -265 -259 0
1 -263 180 0
1 -263 -272 0
1 270 -129 0
1 -270 -198 0
1 270 268 0
1 270 273 0
1 274 189 0
1 -274 -258 0
1 275 276 0
1 -275 189 0
1 275 277 0
1 -275 117 0
1 275 266 0
1 277 278 0
1 -266 -270 0
1 -189 267 0
1 -273 -276 0
1 -276 -277 0
1 -279 197 0
1 -279 272 0
1 -279 201 0
1 -279 123 0
1 280 -281 0
1 282 283 0
1 282 -284 0
1 285 286 0
1 -285 -209 0
1 -281 287 0
1 288 286 0
1 -288 -285 0
1 288 -203 0
1 -289 290 0
1 -291 292 0
1 284 -201 0
1 283 -293 0
1 216 284 0
1 215 210 0
1 294 -226 0
1 -294 -284 0
1 -294 217 0
1 222 -294 0
1 222 -295 0
1 -208 222 0
1 -290 292 0
1 296 215 0
1 297 -221 0
1 -297 -217 0
1 298 -299 0
1 298 300 0
1 300 -224 0
1 -301 -213 0
1 -295 298 0
1 295 214 0
1 -302 219 0
1 -302 -217 0
1 303 304 0
1 303 -242 0
1 -303 305 0
1 303 250 0
1 -261 -238 0
1 -306 -307 0
1 -306 -308 0
1 309 306 0
1 -309 -303 0
1 309 -310 0
1 242 -310 0
1 -258 305 0
1 -258 -311 0
1 -312 -313 0
1 312 -309 0
1 278 -309 0
1 311 -314 0
1 -311 259 0
1 -311 -258 0
1 -311 310 0
1 311 315 0
1 -314 316 0
1 -314 315 0
1 307 -317 0
1 -308 306 0
1 272 -315 0
1 318 -319 0
1 -318 320 0
1 -321 -271 0
1 321 322 0
1 -323 313 0
1 -319 -324 0
1 287 -313 0
1 -287 -288 0
1 325 271 0
1 325 323 0
1 325 -292 0
1 -326 -327 0
1 -326 325 0
1 -322 -287 0
1 271 322 0
1 320 -321 0
1 328 329 0
1 -328 -330 0
1 328 -287 0
1 -331 -332 0
1 -331 285 0
1 -293 322 0
1 293 -333 0
1 -334 -335 0
1 -336 337 0
1 336 -338 0
1 -327 293 0
1 333 -339 0
1 -333 -334 0
1 332 -293 0
1 -332 325 0
1 340 283 0
1 340 341 0
1 -337 339 0
1 -338 335 0
1 335 -299 0
1 317 -319 0
1 316 317 0
1 -316 -308 0
1 324 342 0
1 -343 -324 0
1 -344 324 0
1 -344 316 0
1 344 -242 0
1 345 -346 0
1 -347 348 0
1 329 -320 0
1 348 -314 0
1 -349 342 0
1 -349 350 0
1 330 351 0
1 -330 271 0
1 -339 330 0
1 -351 -352 0
1 -351 330 0
1 353 339 0
